NAME          DCAP_3_4_2_300_SS191
ROWS
 N  OBJ
 L  CON1
 L  CON2
 L  CON3
 L  CON4
 L  CON5
 L  CON6
 L  CON7
 L  CON8
 L  CON9
 L  CON10
 L  CON11
 L  CON12
 E  CON13
 E  CON14
 E  CON15
 E  CON16
 E  CON17
 E  CON18
 E  CON19
 E  CON20
COLUMNS
    x[1,1]    OBJ       6.180167      CON1      1.000000    
    x[1,1]    CON7      -1.000000     CON8      -1.000000   
    x[1,2]    OBJ       5.039546      CON2      1.000000    
    x[1,2]    CON8      -1.000000   
    x[2,1]    OBJ       6.732585      CON3      1.000000    
    x[2,1]    CON9      -1.000000     CON10     -1.000000   
    x[2,2]    OBJ       7.443064      CON4      1.000000    
    x[2,2]    CON10     -1.000000   
    x[3,1]    OBJ       6.563535      CON5      1.000000    
    x[3,1]    CON11     -1.000000     CON12     -1.000000   
    x[3,2]    OBJ       6.054841      CON6      1.000000    
    x[3,2]    CON12     -1.000000   
    MARKER    'MARKER'                'INTORG'
    u[1,1]    OBJ       48.076654     CON1      -1.000000   
    u[1,2]    OBJ       49.466655     CON2      -1.000000   
    u[2,1]    OBJ       49.996186     CON3      -1.000000   
    u[2,2]    OBJ       32.230043     CON4      -1.000000   
    u[3,1]    OBJ       20.066487     CON5      -1.000000   
    u[3,2]    OBJ       27.484319     CON6      -1.000000   
    y[1,1,1]  OBJ       8.805538      CON7      0.541599    
    y[1,1,1]  CON13     1.000000    
    y[1,1,2]  OBJ       6.686945      CON8      1.251666    
    y[1,1,2]  CON14     1.000000    
    y[1,2,1]  OBJ       7.418629      CON7      1.371019    
    y[1,2,1]  CON15     1.000000    
    y[1,2,2]  OBJ       6.899688      CON8      0.680947    
    y[1,2,2]  CON16     1.000000    
    y[1,3,1]  OBJ       7.406186      CON7      1.051066    
    y[1,3,1]  CON17     1.000000    
    y[1,3,2]  OBJ       9.178883      CON8      0.866986    
    y[1,3,2]  CON18     1.000000    
    y[1,4,1]  OBJ       5.534336      CON7      0.663254    
    y[1,4,1]  CON19     1.000000    
    y[1,4,2]  OBJ       5.752612      CON8      1.495421    
    y[1,4,2]  CON20     1.000000    
    y[2,1,1]  OBJ       8.642163      CON9      0.541599    
    y[2,1,1]  CON13     1.000000    
    y[2,1,2]  OBJ       9.617296      CON10     1.251666    
    y[2,1,2]  CON14     1.000000    
    y[2,2,1]  OBJ       8.748688      CON9      1.371019    
    y[2,2,1]  CON15     1.000000    
    y[2,2,2]  OBJ       7.345429      CON10     0.680947    
    y[2,2,2]  CON16     1.000000    
    y[2,3,1]  OBJ       9.165698      CON9      1.051066    
    y[2,3,1]  CON17     1.000000    
    y[2,3,2]  OBJ       9.538691      CON10     0.866986    
    y[2,3,2]  CON18     1.000000    
    y[2,4,1]  OBJ       7.830400      CON9      0.663254    
    y[2,4,1]  CON19     1.000000    
    y[2,4,2]  OBJ       9.531997      CON10     1.495421    
    y[2,4,2]  CON20     1.000000    
    y[3,1,1]  OBJ       5.022643      CON11     0.541599    
    y[3,1,1]  CON13     1.000000    
    y[3,1,2]  OBJ       7.509245      CON12     1.251666    
    y[3,1,2]  CON14     1.000000    
    y[3,2,1]  OBJ       5.255908      CON11     1.371019    
    y[3,2,1]  CON15     1.000000    
    y[3,2,2]  OBJ       9.973826      CON12     0.680947    
    y[3,2,2]  CON16     1.000000    
    y[3,3,1]  OBJ       7.593718      CON11     1.051066    
    y[3,3,1]  CON17     1.000000    
    y[3,3,2]  OBJ       9.476370      CON12     0.866986    
    y[3,3,2]  CON18     1.000000    
    y[3,4,1]  OBJ       7.837562      CON11     0.663254    
    y[3,4,1]  CON19     1.000000    
    y[3,4,2]  OBJ       9.786224      CON12     1.495421    
    y[3,4,2]  CON20     1.000000    
    z[1,1]    OBJ       743.608196    CON13     1.000000    
    z[1,2]    OBJ       576.339331    CON14     1.000000    
    z[2,1]    OBJ       673.577295    CON15     1.000000    
    z[2,2]    OBJ       757.173950    CON16     1.000000    
    z[3,1]    OBJ       813.515529    CON17     1.000000    
    z[3,2]    OBJ       911.643821    CON18     1.000000    
    z[4,1]    OBJ       895.571487    CON19     1.000000    
    z[4,2]    OBJ       807.425553    CON20     1.000000    
    MARKER    'MARKER'                 'INTEND'
RHS
    RHS       CON1      -0.000000     CON2      -0.000000   
    RHS       CON3      -0.000000     CON4      -0.000000   
    RHS       CON5      -0.000000     CON6      -0.000000   
    RHS       CON7      -0.000000     CON8      -0.000000   
    RHS       CON9      -0.000000     CON10     -0.000000   
    RHS       CON11     -0.000000     CON12     -0.000000   
    RHS       CON13     1.000000      CON14     1.000000    
    RHS       CON15     1.000000      CON16     1.000000    
    RHS       CON17     1.000000      CON18     1.000000    
    RHS       CON19     1.000000      CON20     1.000000    
BOUNDS
 BV BOUND     u[1,1]  
 BV BOUND     u[1,2]  
 BV BOUND     u[2,1]  
 BV BOUND     u[2,2]  
 BV BOUND     u[3,1]  
 BV BOUND     u[3,2]  
 BV BOUND     y[1,1,1]
 BV BOUND     y[1,1,2]
 BV BOUND     y[1,2,1]
 BV BOUND     y[1,2,2]
 BV BOUND     y[1,3,1]
 BV BOUND     y[1,3,2]
 BV BOUND     y[1,4,1]
 BV BOUND     y[1,4,2]
 BV BOUND     y[2,1,1]
 BV BOUND     y[2,1,2]
 BV BOUND     y[2,2,1]
 BV BOUND     y[2,2,2]
 BV BOUND     y[2,3,1]
 BV BOUND     y[2,3,2]
 BV BOUND     y[2,4,1]
 BV BOUND     y[2,4,2]
 BV BOUND     y[3,1,1]
 BV BOUND     y[3,1,2]
 BV BOUND     y[3,2,1]
 BV BOUND     y[3,2,2]
 BV BOUND     y[3,3,1]
 BV BOUND     y[3,3,2]
 BV BOUND     y[3,4,1]
 BV BOUND     y[3,4,2]
 BV BOUND     z[1,1]  
 BV BOUND     z[1,2]  
 BV BOUND     z[2,1]  
 BV BOUND     z[2,2]  
 BV BOUND     z[3,1]  
 BV BOUND     z[3,2]  
 BV BOUND     z[4,1]  
 BV BOUND     z[4,2]  
ENDATA
